data;


param d:= 100;
param r:=5;
param p:=0.740000;
param M:=1000;
param U:=
         1         1       -6.656967e-01
         2         1        4.362071e-01
         3         1        1.430506e+00
         4         1       -8.083120e-01
         5         1        9.088395e-01
         6         1        1.643646e-01
         7         1        2.661698e-01
         8         1       -1.160990e+00
         9         1       -2.112861e-02
        10         1        4.974381e-02
        11         1       -5.003413e-01
        12         1        3.997521e-01
        13         1        2.307822e-01
        14         1        4.275178e-01
        15         1        5.008975e-01
        16         1        2.715843e+00
        17         1       -1.073750e-01
        18         1        1.193842e+00
        19         1        4.279139e-01
        20         1       -9.170396e-02
        21         1       -2.886627e-01
        22         1        7.675963e-01
        23         1        1.504633e+00
        24         1       -2.369646e+00
        25         1        3.502664e-01
        26         1       -3.288238e-01
        27         1       -1.934765e+00
        28         1        1.845835e+00
        29         1        4.445313e-01
        30         1        5.342624e-01
        31         1       -1.940468e+00
        32         1        1.024917e+00
        33         1        1.306579e+00
        34         1        1.886704e+00
        35         1       -2.133998e-01
        36         1       -2.268937e-01
        37         1       -2.639615e-01
        38         1        1.113758e-01
        39         1        1.360386e+00
        40         1       -1.503264e+00
        41         1        4.170669e-01
        42         1       -7.658297e-01
        43         1        8.650494e-01
        44         1        1.626404e-01
        45         1        2.114786e+00
        46         1       -4.360777e-01
        47         1        1.129336e-02
        48         1        9.917709e-01
        49         1       -1.874207e+00
        50         1       -7.210513e-01
        51         1        1.129256e+00
        52         1       -1.787105e+00
        53         1        7.477723e-04
        54         1        6.917804e-01
        55         1        1.258224e+00
        56         1       -1.438446e-01
        57         1       -6.409345e-01
        58         1       -1.625220e+00
        59         1        5.056723e-01
        60         1       -6.376584e-01
        61         1        1.168884e-02
        62         1       -6.971339e-01
        63         1        2.322809e-01
        64         1        2.652874e-01
        65         1       -6.373923e-01
        66         1       -1.693882e-01
        67         1       -2.059205e-01
        68         1        4.891382e-01
        69         1        7.198218e-01
        70         1       -6.745390e-01
        71         1        8.894136e-01
        72         1        1.767738e+00
        73         1        1.793532e+00
        74         1       -1.279269e+00
        75         1       -2.011187e+00
        76         1       -1.369953e-01
        77         1        7.161692e-01
        78         1        1.149473e+00
        79         1        9.135254e-02
        80         1       -4.583234e-01
        81         1       -1.191459e+00
        82         1        1.328496e+00
        83         1        1.017021e+00
        84         1        5.240547e-01
        85         1        5.121764e-01
        86         1        1.731443e-01
        87         1       -2.389478e-02
        88         1       -8.353760e-01
        89         1       -8.430931e-02
        90         1        1.627448e-02
        91         1       -1.321575e+00
        92         1        1.332377e-01
        93         1        6.916276e-01
        94         1       -1.066990e-02
        95         1        7.978749e-01
        96         1       -8.555234e-01
        97         1       -1.604104e-01
        98         1       -6.937828e-01
        99         1        2.166986e+00
       100         1        1.085110e+00
         1         2        1.420553e+00
         2         2        2.615876e-01
         3         2       -1.836746e+00
         4         2        1.214527e+00
         5         2       -3.791395e-01
         6         2       -1.930277e-01
         7         2       -3.387234e-01
         8         2       -2.643779e-01
         9         2        3.584775e-01
        10         2       -8.857335e-01
        11         2        4.761858e-01
        12         2        3.676750e-01
        13         2       -2.680525e+00
        14         2        2.554665e-01
        15         2       -8.562025e-01
        16         2        1.546351e+00
        17         2        4.613803e-01
        18         2        1.961074e+00
        19         2       -1.156711e+00
        20         2       -8.287822e-01
        21         2       -1.245042e-01
        22         2        3.245602e-01
        23         2       -8.710353e-01
        24         2       -5.223761e-01
        25         2       -1.608876e-01
        26         2       -1.275091e-01
        27         2        1.661114e+00
        28         2       -2.423260e+00
        29         2       -3.227235e-01
        30         2        9.243553e-01
        31         2       -1.191113e+00
        32         2       -1.384846e+00
        33         2       -1.005803e-02
        34         2        3.245972e-01
        35         2       -7.814443e-01
        36         2        6.513715e-01
        37         2        8.310561e-01
        38         2       -1.467484e-02
        39         2        8.282047e-01
        40         2       -7.320572e-01
        41         2        7.324162e-01
        42         2       -1.387288e+00
        43         2        1.393098e-01
        44         2        1.209952e+00
        45         2        7.032966e-02
        46         2       -1.688708e+00
        47         2       -2.026082e+00
        48         2        7.979999e-01
        49         2        1.587071e+00
        50         2        8.948909e-01
        51         2       -3.077940e-03
        52         2        8.282704e-01
        53         2        9.477885e-01
        54         2       -1.040584e+00
        55         2        2.279627e+00
        56         2        6.186354e-01
        57         2        1.882796e+00
        58         2        8.208171e-01
        59         2       -1.450327e+00
        60         2        2.314567e+00
        61         2       -1.376436e+00
        62         2        1.663088e-01
        63         2       -3.160498e-01
        64         2       -1.723021e-01
        65         2        2.708805e-01
        66         2        4.571038e-01
        67         2       -4.703290e-01
        68         2        6.753993e-02
        69         2       -2.188260e+00
        70         2        5.608590e-01
        71         2       -2.965189e-01
        72         2        1.311555e+00
        73         2       -2.023837e+00
        74         2       -1.131110e+00
        75         2        9.376822e-01
        76         2       -1.250572e+00
        77         2        1.062334e+00
        78         2        5.417292e-01
        79         2       -3.419849e-01
        80         2        6.001533e-01
        81         2        6.647736e-01
        82         2       -6.713702e-01
        83         2       -1.325618e+00
        84         2       -1.804874e-02
        85         2       -1.740521e-01
        86         2        3.470274e-01
        87         2       -6.410026e-01
        88         2       -5.049445e-01
        89         2        2.159200e+00
        90         2       -3.246483e-01
        91         2        1.696828e+00
        92         2       -1.826405e+00
        93         2        1.052593e+00
        94         2        7.031085e-01
        95         2       -4.668828e-01
        96         2        1.530660e+00
        97         2        1.913332e+00
        98         2        3.485997e-01
        99         2       -1.500346e+00
       100         2        6.966696e-01
         1         3       -5.001853e-01
         2         3       -1.852030e-01
         3         3       -1.860360e+00
         4         3        1.746025e+00
         5         3        1.737995e-01
         6         3       -2.734515e-01
         7         3        5.107278e-01
         8         3        1.128038e+00
         9         3        3.934309e-01
        10         3        2.261195e+00
        11         3        1.473161e+00
        12         3       -3.056355e-01
        13         3       -1.421697e+00
        14         3        3.802809e-01
        15         3        1.617576e+00
        16         3       -1.714017e-01
        17         3       -2.647012e-01
        18         3       -1.432254e-01
        19         3        7.118092e-01
        20         3        1.037300e-02
        21         3       -5.749047e-01
        22         3       -8.658380e-01
        23         3       -2.818136e-01
        24         3       -1.054806e+00
        25         3       -5.069691e-01
        26         3       -6.010885e-01
        27         3        1.463463e+00
        28         3       -1.854606e+00
        29         3       -5.382231e-01
        30         3        6.251613e-01
        31         3        2.229335e-01
        32         3       -4.570576e-01
        33         3        1.996535e-01
        34         3        3.104256e-01
        35         3       -1.324933e+00
        36         3       -1.310708e+00
        37         3       -1.629733e+00
        38         3        6.147169e-01
        39         3        2.278400e-01
        40         3        1.509654e+00
        41         3        1.338446e+00
        42         3       -6.667484e-02
        43         3       -4.533270e-01
        44         3       -4.524285e-01
        45         3       -1.747036e-01
        46         3        1.735459e+00
        47         3       -4.435287e-02
        48         3        2.405759e-01
        49         3        1.838864e-01
        50         3       -6.734302e-01
        51         3        3.404632e-01
        52         3        1.589889e+00
        53         3       -3.843195e-01
        54         3       -6.474581e-01
        55         3        1.793057e-01
        56         3        1.654604e+00
        57         3        7.108594e-01
        58         3       -2.685957e-01
        59         3       -1.793301e+00
        60         3       -9.205323e-01
        61         3       -5.133131e-01
        62         3       -6.351207e-01
        63         3       -1.402579e+00
        64         3       -6.232693e-01
        65         3       -1.220922e+00
        66         3       -9.494152e-01
        67         3        4.963710e-01
        68         3        3.755841e-02
        69         3       -7.149430e-01
        70         3        1.869373e+00
        71         3       -4.373371e-01
        72         3        1.477190e+00
        73         3       -1.345814e+00
        74         3       -2.884154e-01
        75         3       -8.894848e-01
        76         3        5.413582e-01
        77         3        1.501559e+00
        78         3        1.182968e+00
        79         3       -2.481859e-01
        80         3       -5.161405e-01
        81         3        1.089985e+00
        82         3       -2.364049e+00
        83         3       -6.235251e-01
        84         3       -8.658529e-01
        85         3        1.933069e+00
        86         3        1.300669e+00
        87         3        2.059038e+00
        88         3        5.907750e-01
        89         3       -3.665627e-01
        90         3       -2.497641e-01
        91         3       -3.570005e-01
        92         3        1.919402e+00
        93         3        4.070901e-01
        94         3        2.335403e-01
        95         3       -1.623282e+00
        96         3       -3.282382e-01
        97         3       -1.535192e-01
        98         3       -1.993730e+00
        99         3        2.373300e+00
       100         3        1.002019e+00
         1         4       -6.166205e-01
         2         4        4.542663e-01
         3         4        1.278382e-01
         4         4       -4.988744e-01
         5         4       -2.829381e-02
         6         4       -6.806754e-01
         7         4       -1.551467e+00
         8         4        7.030165e-02
         9         4       -1.002331e+00
        10         4        1.204410e+00
        11         4        2.217614e+00
        12         4       -1.590791e-01
        13         4       -1.954396e+00
        14         4       -2.980394e-02
        15         4       -7.114636e-01
        16         4       -1.184014e+00
        17         4       -1.279314e+00
        18         4       -8.379982e-01
        19         4        3.993750e-01
        20         4       -7.654574e-01
        21         4        3.862269e-01
        22         4       -4.769902e-01
        23         4       -1.411306e-01
        24         4       -3.253810e-01
        25         4        8.879455e-01
        26         4        4.012381e-01
        27         4       -3.195219e-01
        28         4        4.987859e-01
        29         4        2.979332e-01
        30         4       -1.134914e+00
        31         4        1.672586e-01
        32         4        1.828454e+00
        33         4        6.666702e-02
        34         4        3.859238e-01
        35         4        1.058155e+00
        36         4       -1.512390e-01
        37         4        2.961885e-01
        38         4        6.400807e-01
        39         4        9.796722e-01
        40         4        2.708024e-01
        41         4        6.840717e-01
        42         4       -4.098352e-01
        43         4       -1.705118e+00
        44         4       -1.819812e+00
        45         4        7.689793e-01
        46         4       -1.944730e-01
        47         4        2.482134e-01
        48         4        2.563285e-01
        49         4        7.697749e-01
        50         4        8.179727e-01
        51         4       -7.313995e-01
        52         4        2.246844e-01
        53         4       -3.784740e-01
        54         4        2.369414e-01
        55         4        1.239696e+00
        56         4       -1.429882e+00
        57         4        3.804882e-01
        58         4       -1.611107e+00
        59         4        3.191126e-01
        60         4        7.699608e-01
        61         4        3.269745e-01
        62         4        5.026988e-01
        63         4       -9.194865e-01
        64         4       -2.353734e+00
        65         4        5.392682e-01
        66         4       -9.813256e-01
        67         4       -4.800963e-01
        68         4        4.495177e-01
        69         4       -8.749933e-02
        70         4       -1.067603e+00
        71         4        9.810950e-01
        72         4        5.800628e-01
        73         4        4.182797e-01
        74         4        1.051352e+00
        75         4        2.095800e-01
        76         4       -1.091928e+00
        77         4        2.723114e-01
        78         4       -4.823500e-02
        79         4        5.309602e-01
        80         4        2.897675e+00
        81         4        1.501409e-01
        82         4        1.121583e-01
        83         4        1.914306e+00
        84         4       -1.406675e+00
        85         4        2.005961e+00
        86         4        1.171359e+00
        87         4        8.295981e-01
        88         4        6.383349e-01
        89         4       -1.517843e+00
        90         4        5.340041e-02
        91         4        3.660962e-01
        92         4       -1.645308e+00
        93         4        9.536350e-01
        94         4       -1.299218e-01
        95         4       -2.972425e+00
        96         4        9.128686e-01
        97         4       -9.217724e-01
        98         4        7.478524e-01
        99         4        7.042022e-01
       100         4       -1.327462e+00
         1         5        1.315615e+00
         2         5       -4.352244e-01
         3         5        6.590737e-01
         4         5        6.995430e-01
         5         5        1.181484e-01
         6         5       -7.408870e-01
         7         5        1.802263e+00
         8         5        4.607053e-01
         9         5        1.238856e+00
        10         5       -8.825800e-01
        11         5        9.326393e-01
        12         5        1.412726e+00
        13         5       -1.688119e-02
        14         5        7.480966e-01
        15         5        5.827221e-01
        16         5       -5.859255e-01
        17         5       -8.692646e-01
        18         5        6.324199e-01
        19         5       -8.726771e-01
        20         5       -1.617322e+00
        21         5        6.073622e-01
        22         5       -2.403171e-01
        23         5       -1.529287e+00
        24         5       -2.578221e-01
        25         5        4.696857e-01
        26         5        4.913314e-02
        27         5       -9.055028e-01
        28         5       -1.057098e+00
        29         5       -6.102754e-01
        30         5       -5.212162e-01
        31         5       -9.164303e-01
        32         5       -4.971516e-01
        33         5        3.712596e-01
        34         5        1.050835e+00
        35         5        1.050222e+00
        36         5        1.199543e-01
        37         5       -5.619202e-01
        38         5       -1.203068e-01
        39         5        1.324749e+00
        40         5        1.495075e+00
        41         5       -1.261406e+00
        42         5        4.884667e-01
        43         5       -5.218226e-01
        44         5       -3.274459e+00
        45         5        1.218709e+00
        46         5        9.191943e-01
        47         5        4.146039e-01
        48         5       -8.643432e-01
        49         5       -1.497470e-01
        50         5       -4.028899e-02
        51         5       -1.753374e+00
        52         5        1.189640e+00
        53         5       -4.247882e-03
        54         5       -1.910544e+00
        55         5       -1.616641e-01
        56         5        5.877743e-01
        57         5       -1.128488e-01
        58         5        8.154547e-01
        59         5        7.041100e-01
        60         5       -1.667556e+00
        61         5       -1.465832e-01
        62         5        1.396568e+00
        63         5        1.442099e-01
        64         5        1.004860e+00
        65         5       -1.286412e+00
        66         5       -7.012261e-01
        67         5       -1.429609e+00
        68         5        8.173366e-01
        69         5       -3.848073e-01
        70         5        2.683104e-01
        71         5        5.116090e-02
        72         5        2.118100e+00
        73         5        8.157616e-01
        74         5       -2.997206e-02
        75         5       -4.153687e-01
        76         5        1.230383e+00
        77         5       -2.947664e-01
        78         5        1.941081e-01
        79         5        8.596036e-01
        80         5        1.370913e-01
        81         5       -4.024513e-01
        82         5       -6.928909e-01
        83         5       -1.139207e+00
        84         5        1.625954e+00
        85         5        2.158772e+00
        86         5        2.375342e+00
        87         5        4.826531e-01
        88         5        1.724630e-01
        89         5       -1.362257e+00
        90         5       -1.122903e+00
        91         5        3.507984e-01
        92         5        7.979121e-01
        93         5       -6.114668e-02
        94         5       -5.506810e-01
        95         5       -3.040481e-01
        96         5       -2.829715e-01
        97         5        1.293900e+00
        98         5        3.629877e-01
        99         5        1.969027e+00
       100         5        7.318467e-01
;

param theta:=
    1       -4.906400e-01
    2        8.457575e-01
    3       -8.889824e-01
    4        1.095187e+00
    5        1.536698e-01
;
param X_true:=
    1        1.499572e+00
    2        6.024871e-01
    3       -3.601916e-01
    4       -5.672622e-01
    5       -9.339090e-01
    6       -8.601240e-01
    7       -2.293293e+00
    8       -5.089871e-01
    9       -9.435673e-01
   10       -1.600256e+00
   11        1.910632e+00
   12        4.294061e-01
   13       -3.259465e+00
   14       -2.494386e-01
   15       -3.097536e+00
   16       -1.259047e+00
   17       -8.564550e-01
   18        3.795897e-01
   19       -1.517748e+00
   20       -1.752029e+00
   21        1.063733e+00
   22        1.082774e-01
   23       -1.613960e+00
   24        1.262571e+00
   25        1.187403e+00
   26        1.034830e+00
   27        5.640951e-01
   28       -9.225983e-01
   29        2.199319e-01
   30       -1.359146e+00
   31       -2.111540e-01
   32        6.583096e-01
   33       -6.969906e-01
   34       -3.429845e-01
   35        1.941898e+00
   36        1.680220e+00
   37        2.519218e+00
   38        6.899142e-02
   39        1.106953e+00
   40       -6.973096e-01
   41       -2.196916e-01
   42       -1.112073e+00
   43       -1.851218e+00
   44       -1.150492e+00
   45        2.066467e-01
   46       -2.828804e+00
   47       -1.344134e+00
   48        1.223484e-01
   49        2.918403e+00
   50        2.598947e+00
   51       -1.929787e+00
   52        5.928413e-01
   53        7.277328e-01
   54       -6.780159e-01
   55        2.484133e+00
   56       -2.352787e+00
   57        1.674279e+00
   58        9.123448e-02
   59        5.771735e-01
   60        3.675758e+00
   61       -3.779669e-01
   62        1.812470e+00
   63       -1.192493e-01
   64       -2.145174e+00
   65        2.020125e+00
   66        1.312283e-01
   67       -1.483500e+00
   68        4.016489e-01
   69       -1.723300e+00
   70       -1.984527e+00
   71        7.839646e-01
   72       -1.104960e-01
   73       -8.117959e-01
   74        1.074234e+00
   75        2.736256e+00
   76       -2.478517e+00
   77       -5.348288e-01
   78       -1.180441e+00
   79        6.001715e-01
   80        4.385859e+00
   81        2.804247e-01
   82        8.983259e-01
   83        8.556221e-01
   84       -7.933712e-01
   85        4.116768e-01
   86        7.001536e-01
   87       -1.378123e+00
   88        1.832183e-01
   89        3.217330e-01
   90       -1.745956e-01
   91        2.855741e+00
   92       -4.995687e+00
   93        1.224014e+00
   94        1.653693e-01
   95       -2.645355e+00
   96        2.962397e+00
   97        1.022714e+00
   98        3.282438e+00
   99       -3.368147e+00
  100       -2.175319e+00
;
param X:=
    1        8.461138e-01
    2        1.561778e+00
    3        9.607884e-01
    4       -5.034910e-01
    5       -1.045247e+00
    6       -1.996232e+00
    7       -7.756302e-01
    8       -1.355931e+00
    9        7.832645e-01
   10       -6.995655e-01
   11       -3.170132e-01
   12       -9.367985e-01
   13        1.854853e+00
   14       -2.494386e-01
   15       -3.097536e+00
   16       -1.774938e+00
   17        4.679362e-01
   18        1.103146e-01
   19       -1.898400e+00
   20        5.240418e-01
   21        1.063733e+00
   22        1.082774e-01
   23       -8.609366e-01
   24        1.262571e+00
   25       -9.467914e-02
   26        7.864556e-01
   27        1.435648e-01
   28       -7.946012e-01
   29        2.199319e-01
   30       -1.371864e+00
   31        1.153157e+00
   32       -1.037589e+00
   33       -5.785347e-01
   34       -1.591971e-01
   35        1.941898e+00
   36       -1.968295e-01
   37        1.436395e+00
   38        6.899142e-02
   39        3.003359e-01
   40       -6.035209e-03
   41        2.531193e-01
   42       -3.326592e-01
   43       -1.851218e+00
   44       -8.397369e-01
   45        2.066467e-01
   46       -2.828804e+00
   47        5.171162e-01
   48       -2.231277e-01
   49        6.513989e-01
   50        2.598947e+00
   51        4.237581e-01
   52        1.659815e+00
   53        7.277328e-01
   54        9.743906e-02
   55        2.484133e+00
   56       -1.634882e+00
   57       -1.274621e+00
   58       -2.955965e-01
   59       -9.454224e-01
   60       -1.092901e+00
   61        1.105040e+00
   62        4.473145e-01
   63       -7.248202e-01
   64       -8.262115e-01
   65        1.467080e+00
   66        2.509940e-01
   67        5.667652e-01
   68        4.016489e-01
   69       -1.723300e+00
   70       -1.158873e+00
   71       -6.063815e-01
   72       -1.939016e-01
   73        6.067124e-01
   74       -1.589688e+00
   75       -4.491474e-01
   76       -4.868899e-01
   77        2.420713e+00
   78       -1.180441e+00
   79        6.001715e-01
   80        4.801635e-01
   81       -1.367923e+00
   82       -8.064403e-01
   83        8.556221e-01
   84       -7.933712e-01
   85       -3.653784e-01
   86        9.245761e-01
   87       -1.378123e+00
   88       -4.958983e-01
   89        2.730860e-02
   90       -1.405589e+00
   91        2.855741e+00
   92       -4.995687e+00
   93        1.224014e+00
   94        1.653693e-01
   95        4.843771e-01
   96       -2.201590e+00
   97        6.716256e-01
   98        3.282438e+00
   99        4.269334e-01
  100       -2.370018e-01
;
param outliervec:=
    1    1
    2    1
    3    1
    4    1
    5    1
    6    1
    7    1
    8    1
    9    1
   10    1
   11    1
   12    1
   13    1
   14    0
   15    0
   16    1
   17    1
   18    1
   19    1
   20    1
   21    0
   22    0
   23    1
   24    0
   25    1
   26    1
   27    1
   28    1
   29    0
   30    1
   31    1
   32    1
   33    1
   34    1
   35    0
   36    1
   37    1
   38    0
   39    1
   40    1
   41    1
   42    1
   43    0
   44    1
   45    0
   46    0
   47    1
   48    1
   49    1
   50    0
   51    1
   52    1
   53    0
   54    1
   55    0
   56    1
   57    1
   58    1
   59    1
   60    1
   61    1
   62    1
   63    1
   64    1
   65    1
   66    1
   67    1
   68    0
   69    0
   70    1
   71    1
   72    1
   73    1
   74    1
   75    1
   76    1
   77    1
   78    0
   79    0
   80    1
   81    1
   82    1
   83    0
   84    0
   85    1
   86    1
   87    0
   88    1
   89    1
   90    1
   91    0
   92    0
   93    0
   94    0
   95    1
   96    1
   97    1
   98    0
   99    1
  100    1
;